[VALIDATOR STDOUT]
Checking plan: /home/jfan5/Safety-gen/runs/benchmark/optic/ferry_20260201_171235/ferry/optic_results/ferry-l17-c09-s17001.plan
Plan executed successfully - checking goal
Plan valid
Final value: 37 

Successful plans:
Value: 37
 /home/jfan5/Safety-gen/runs/benchmark/optic/ferry_20260201_171235/ferry/optic_results/ferry-l17-c09-s17001.plan 37
